
Gurobi 7.5.2 (linux64) logging started Sat Jul  7 16:21:11 2018

Changed value of parameter LogFile to result/ilp/simNo_9-n_100-m_40-s_4-minVAF_0.05-cov_10000-k_1-fn_0.10-fp_0.0001-na_0.15.ILP.gurobiSolverLog
   Prev: gurobi.log  Default: 
Changed value of parameter TimeLimit to 86400.0
   Prev: 1e+100  Min: 0.0  Max: 1e+100  Default: 1e+100
Optimize a model with 639293 rows, 10765 columns and 1940420 nonzeros
Variable types: 0 continuous, 10765 integer (10765 binary)
Coefficient statistics:
  Matrix range     [3e-05, 4e+00]
  Objective range  [5e-01, 9e+00]
  Bounds range     [1e+00, 1e+00]
  RHS range        [3e-01, 2e+00]
Presolve removed 132851 rows and 1024 columns (presolve time = 5s) ...
Presolve removed 133430 rows and 1024 columns (presolve time = 14s) ...
Presolve removed 191330 rows and 1603 columns (presolve time = 16s) ...
Presolve removed 191330 rows and 1603 columns (presolve time = 21s) ...
Presolve removed 191330 rows and 1603 columns
Presolve time: 20.83s
Presolved: 447963 rows, 9162 columns, 1348114 nonzeros
Variable types: 0 continuous, 9162 integer (9162 binary)
Presolved: 9162 rows, 457125 columns, 1357276 nonzeros

Presolve removed 9162 rows and 457125 columns

Root simplex log...

Iteration    Objective       Primal Inf.    Dual Inf.      Time
       0    7.2421327e+00   0.000000e+00   6.934900e+04     28s
   12060   -2.0775320e+02   0.000000e+00   1.230105e+05     30s
   26107   -2.7391116e+02   4.255953e-02   0.000000e+00     35s
   26132   -2.7391116e+02   0.000000e+00   0.000000e+00     36s
   26132   -2.7391116e+02   0.000000e+00   0.000000e+00     37s

Root relaxation: objective -2.739112e+02, 26132 iterations, 10.83 seconds
Total elapsed time = 88.31s
Total elapsed time = 117.75s

    Nodes    |    Current Node    |     Objective Bounds      |     Work
 Expl Unexpl |  Obj  Depth IntInf | Incumbent    BestBd   Gap | It/Node Time

     0     0 -273.91116    0  502          - -273.91116      -     -  136s
H    0     0                    -328.5652249 -273.91116  16.6%     -  148s
H    0     0                    -308.8897622 -273.91116  11.3%     -  160s
     0     0 -278.28349    0  502 -308.88976 -278.28349  9.91%     -  187s
     0     0 -278.28349    0  503 -308.88976 -278.28349  9.91%     -  199s
     0     0 -280.04479    0  517 -308.88976 -280.04479  9.34%     -  248s
     0     0 -280.40496    0  580 -308.88976 -280.40496  9.22%     -  334s
     0     0 -280.46965    0  491 -308.88976 -280.46965  9.20%     -  371s
     0     0 -280.46965    0  497 -308.88976 -280.46965  9.20%     -  380s
H    0     0                    -306.7035997 -280.46965  8.55%     -  384s
     0     0 -280.74292    0  507 -306.70360 -280.74292  8.46%     -  419s
     0     0 -281.01619    0  511 -306.70360 -281.01619  8.38%     -  444s
     0     0 -281.01619    0  508 -306.70360 -281.01619  8.38%     -  448s
     0     0 -282.65581    0  476 -306.70360 -282.65581  7.84%     -  524s
     0     0 -282.65581    0  478 -306.70360 -282.65581  7.84%     -  534s
     0     0 -284.84197    0  521 -306.70360 -284.84197  7.13%     -  977s
     0     0 -284.84197    0  522 -306.70360 -284.84197  7.13%     -  983s
     0     0 -285.93506    0  408 -306.70360 -285.93506  6.77%     - 1035s
     0     0 -287.21032    0  516 -306.70360 -287.21032  6.36%     - 1461s
     0     0 -287.39250    0  519 -306.70360 -287.39250  6.30%     - 1476s
     0     0 -288.84994    0  520 -306.70360 -288.84994  5.82%     - 1657s
     0     0 -288.84994    0  521 -306.70360 -288.84994  5.82%     - 1663s
     0     0 -290.30738    0  498 -306.70360 -290.30738  5.35%     - 1735s
     0     0 -290.30738    0  497 -306.70360 -290.30738  5.35%     - 1744s
     0     0 -291.03610    0  486 -306.70360 -291.03610  5.11%     - 1769s
     0     0 -291.21828    0  480 -306.70360 -291.21828  5.05%     - 1785s
     0     0 -291.76482    0  500 -306.70360 -291.76482  4.87%     - 1868s
     0     0 -291.76482    0  508 -306.70360 -291.76482  4.87%     - 1877s
     0     0 -291.76482    0  473 -306.70360 -291.76482  4.87%     - 1885s
     0     0 -292.49354    0  517 -306.70360 -292.49354  4.63%     - 1972s
     0     0 -292.49354    0  518 -306.70360 -292.49354  4.63%     - 1976s
     0     0 -293.58662    0  443 -306.70360 -293.58662  4.28%     - 2700s
     0     0 -293.58662    0  442 -306.70360 -293.58662  4.28%     - 2707s
     0     0 -293.58662    0  482 -306.70360 -293.58662  4.28%     - 2732s
     0     0 -293.95099    0  481 -306.70360 -293.95099  4.16%     - 2779s
     0     0 -293.95099    0  483 -306.70360 -293.95099  4.16%     - 2783s
     0     0 -293.95099    0  412 -306.70360 -293.95099  4.16%     - 3512s
     0     0 -294.22426    0  463 -306.70360 -294.22426  4.07%     - 3565s
     0     0 -294.49753    0  470 -306.70360 -294.49753  3.98%     - 3594s
     0     0 -294.49753    0  473 -306.70360 -294.49753  3.98%     - 3599s
     0     0 -295.59061    0  524 -306.70360 -295.59061  3.62%     - 3683s
     0     0 -295.59061    0  511 -306.70360 -295.59061  3.62%     - 3690s
     0     0 -296.50151    0  513 -306.70360 -296.50151  3.33%     - 3738s
     0     0 -296.50151    0  515 -306.70360 -296.50151  3.33%     - 3745s
     0     0 -297.27577    0  522 -306.70360 -297.27577  3.07%     - 3817s
     0     0 -297.27577    0  531 -306.70360 -297.27577  3.07%     - 3826s
     0     0 -297.27577    0  528 -306.70360 -297.27577  3.07%     - 3835s
     0     0 -297.82231    0  536 -306.70360 -297.82231  2.90%     - 3854s
     0     0 -298.00449    0  537 -306.70360 -298.00449  2.84%     - 3874s
     0     0 -298.07074    0  539 -306.70360 -298.07074  2.81%     - 3891s
     0     0 -298.07074    0  541 -306.70360 -298.07074  2.81%     - 3895s
     0     0 -298.47816    0  516 -306.70360 -298.47816  2.68%     - 4090s
     0     0 -298.47816    0  502 -306.70360 -298.47816  2.68%     - 4131s
     0     0 -298.47816    0  494 -306.70360 -298.47816  2.68%     - 4133s
     0     0 -298.47816    0  488 -306.70360 -298.47816  2.68%     - 4134s
     0     0 -298.47816    0  521 -306.70360 -298.47816  2.68%     - 4134s
     0     0 -298.50549    0  516 -306.70360 -298.50549  2.67%     - 4135s
     0     0 -298.51460    0  520 -306.70360 -298.51460  2.67%     - 4135s
     0     0 -298.51460    0  522 -306.70360 -298.51460  2.67%     - 4135s
     0     0 -299.74763    0  458 -306.70360 -299.74763  2.27%     - 4136s
     0     0 -299.86555    0  457 -306.70360 -299.86555  2.23%     - 4137s
     0     0 -299.92100    0  458 -306.70360 -299.92100  2.21%     - 4137s
     0     0 -299.93955    0  452 -306.70360 -299.93955  2.21%     - 4138s
     0     0 -299.93955    0  458 -306.70360 -299.93955  2.21%     - 4138s
     0     0 -300.06885    0  331 -306.70360 -300.06885  2.16%     - 4139s
     0     0 -300.10273    0  329 -306.70360 -300.10273  2.15%     - 4140s
     0     0 -300.15527    0  330 -306.70360 -300.15527  2.14%     - 4140s
     0     0 -300.18235    0  330 -306.70360 -300.18235  2.13%     - 4141s
     0     0 -300.22869    0  333 -306.70360 -300.22869  2.11%     - 4141s
     0     0 -300.23946    0  332 -306.70360 -300.23946  2.11%     - 4142s
     0     0 -300.24032    0  331 -306.70360 -300.24032  2.11%     - 4142s
     0     0 -300.28376    0  327 -306.70360 -300.28376  2.09%     - 4145s
     0     0 -300.28376    0  502 -306.70360 -300.28376  2.09%     - 4149s
     0     0 -300.28376    0  466 -306.70360 -300.28376  2.09%     - 4150s
     0     0 -300.28376    0  505 -306.70360 -300.28376  2.09%     - 4150s
     0     0 -300.28376    0  447 -306.70360 -300.28376  2.09%     - 4151s
     0     0 -300.28376    0  449 -306.70360 -300.28376  2.09%     - 4151s
     0     0 -300.28376    0  447 -306.70360 -300.28376  2.09%     - 4151s
     0     0 -300.28376    0  450 -306.70360 -300.28376  2.09%     - 4151s
     0     0 -300.28376    0  452 -306.70360 -300.28376  2.09%     - 4151s
     0     0 -300.28376    0  449 -306.70360 -300.28376  2.09%     - 4152s
     0     0 -300.37936    0  442 -306.70360 -300.37936  2.06%     - 4152s
     0     0 -300.38094    0  443 -306.70360 -300.38094  2.06%     - 4152s
     0     0 -300.44076    0  442 -306.70360 -300.44076  2.04%     - 4153s
     0     0 -300.45595    0  439 -306.70360 -300.45595  2.04%     - 4153s
     0     0 -300.49092    0  438 -306.70360 -300.49092  2.03%     - 4153s
     0     0 -300.49185    0  438 -306.70360 -300.49185  2.03%     - 4154s
     0     0 -300.94346    0  309 -306.70360 -300.94346  1.88%     - 4154s
     0     0 -300.97399    0  318 -306.70360 -300.97399  1.87%     - 4154s
     0     0 -300.99709    0  315 -306.70360 -300.99709  1.86%     - 4155s
     0     0 -301.00065    0  321 -306.70360 -301.00065  1.86%     - 4155s
     0     0 -301.00065    0  321 -306.70360 -301.00065  1.86%     - 4155s
     0     0 -301.02425    0  314 -306.70360 -301.02425  1.85%     - 4155s
     0     0 -301.03513    0  317 -306.70360 -301.03513  1.85%     - 4156s
     0     0 -301.04151    0  319 -306.70360 -301.04151  1.85%     - 4156s
     0     0 -301.04248    0  320 -306.70360 -301.04248  1.85%     - 4156s
     0     0 -301.21659    0  325 -306.70360 -301.21659  1.79%     - 4156s
     0     0 -301.23040    0  325 -306.70360 -301.23040  1.78%     - 4157s
     0     0 -301.26063    0  325 -306.70360 -301.26063  1.77%     - 4157s
     0     0 -301.26063    0  325 -306.70360 -301.26063  1.77%     - 4157s
     0     0 -301.35889    0  326 -306.70360 -301.35889  1.74%     - 4157s
     0     0 -301.46919    0  329 -306.70360 -301.46919  1.71%     - 4158s
     0     0 -301.48222    0  324 -306.70360 -301.48222  1.70%     - 4158s
     0     0 -301.48311    0  324 -306.70360 -301.48311  1.70%     - 4158s
     0     0 -301.48311    0  327 -306.70360 -301.48311  1.70%     - 4159s
     0     0 -301.48311    0  327 -306.70360 -301.48311  1.70%     - 4159s
     0     0 -301.48311    0  327 -306.70360 -301.48311  1.70%     - 4159s
     0     0 -301.48311    0  327 -306.70360 -301.48311  1.70%     - 4160s
     0     0 -301.58168    0  325 -306.70360 -301.58168  1.67%     - 4160s
     0     0 -301.60241    0  321 -306.70360 -301.60241  1.66%     - 4161s
     0     0 -301.61556    0  323 -306.70360 -301.61556  1.66%     - 4161s
     0     0 -301.61648    0  323 -306.70360 -301.61648  1.66%     - 4161s
     0     0 -301.61856    0  325 -306.70360 -301.61856  1.66%     - 4161s
     0     0 -301.61856    0  327 -306.70360 -301.61856  1.66%     - 4162s
     0     0 -301.62789    0  326 -306.70360 -301.62789  1.65%     - 4162s
     0     0 -301.63123    0  326 -306.70360 -301.63123  1.65%     - 4162s
     0     0 -301.63131    0  330 -306.70360 -301.63131  1.65%     - 4163s
     0     0 -301.66175    0  327 -306.70360 -301.66175  1.64%     - 4163s
     0     0 -301.68239    0  325 -306.70360 -301.68239  1.64%     - 4164s
     0     0 -301.69732    0  327 -306.70360 -301.69732  1.63%     - 4164s
     0     0 -301.69732    0  328 -306.70360 -301.69732  1.63%     - 4164s
     0     0 -301.96591    0  325 -306.70360 -301.96591  1.54%     - 4164s
     0     0 -301.97358    0  330 -306.70360 -301.97358  1.54%     - 4165s
     0     0 -301.97375    0  331 -306.70360 -301.97375  1.54%     - 4165s
     0     0 -302.11570    0  331 -306.70360 -302.11570  1.50%     - 4165s
     0     0 -302.11971    0  325 -306.70360 -302.11971  1.49%     - 4166s
     0     0 -302.11971    0  326 -306.70360 -302.11971  1.49%     - 4166s
     0     0 -302.41377    0  325 -306.70360 -302.41377  1.40%     - 4166s
     0     0 -302.47981    0  329 -306.70360 -302.47981  1.38%     - 4166s
     0     0 -302.49348    0  327 -306.70360 -302.49348  1.37%     - 4167s
     0     0 -302.52164    0  328 -306.70360 -302.52164  1.36%     - 4167s
     0     0 -302.52164    0  329 -306.70360 -302.52164  1.36%     - 4167s
     0     0 -302.61096    0  322 -306.70360 -302.61096  1.33%     - 4167s
     0     0 -302.66183    0  324 -306.70360 -302.66183  1.32%     - 4168s
     0     0 -302.69564    0  324 -306.70360 -302.69564  1.31%     - 4168s
     0     0 -302.70251    0  323 -306.70360 -302.70251  1.30%     - 4168s
     0     0 -302.70605    0  325 -306.70360 -302.70605  1.30%     - 4168s
     0     0 -302.70658    0  329 -306.70360 -302.70658  1.30%     - 4168s
     0     0 -302.96597    0  322 -306.70360 -302.96597  1.22%     - 4169s
     0     0 -303.06000    0  323 -306.70360 -303.06000  1.19%     - 4169s
     0     0 -303.06000    0  319 -306.70360 -303.06000  1.19%     - 4169s
     0     0 -303.06000    0  321 -306.70360 -303.06000  1.19%     - 4170s
     0     0 -303.06000    0  322 -306.70360 -303.06000  1.19%     - 4170s
     0     0 -303.06000    0  316 -306.70360 -303.06000  1.19%     - 4170s
     0     0 -303.06000    0  317 -306.70360 -303.06000  1.19%     - 4170s
     0     0 -303.06364    0  324 -306.70360 -303.06364  1.19%     - 4171s
     0     0 -303.06364    0  324 -306.70360 -303.06364  1.19%     - 4175s
     0     0 -303.06364    0  502 -306.70360 -303.06364  1.19%     - 4178s
     0     0 -303.06364    0  307 -306.70360 -303.06364  1.19%     - 4179s
     0     0 -303.06364    0  323 -306.70360 -303.06364  1.19%     - 4179s
     0     0 -303.06364    0  317 -306.70360 -303.06364  1.19%     - 4179s
     0     0 -303.06364    0  318 -306.70360 -303.06364  1.19%     - 4179s
     0     0 -303.06364    0  305 -306.70360 -303.06364  1.19%     - 4180s
     0     0 -303.13006    0  325 -306.70360 -303.13006  1.17%     - 4180s
     0     0 -303.16410    0  318 -306.70360 -303.16410  1.15%     - 4180s
     0     0 -303.16853    0  322 -306.70360 -303.16853  1.15%     - 4180s
     0     0 -303.17211    0  321 -306.70360 -303.17211  1.15%     - 4180s
     0     0 -303.17211    0  321 -306.70360 -303.17211  1.15%     - 4181s
     0     0 -303.27183    0  319 -306.70360 -303.27183  1.12%     - 4181s
     0     0 -303.28069    0  324 -306.70360 -303.28069  1.12%     - 4181s
     0     0 -303.28069    0  324 -306.70360 -303.28069  1.12%     - 4181s
     0     0 -303.32498    0  318 -306.70360 -303.32498  1.10%     - 4181s
     0     0 -303.36807    0  319 -306.70360 -303.36807  1.09%     - 4182s
     0     0 -303.36830    0  320 -306.70360 -303.36830  1.09%     - 4182s
     0     0 -303.39812    0  323 -306.70360 -303.39812  1.08%     - 4182s
     0     0 -303.40887    0  322 -306.70360 -303.40887  1.07%     - 4182s
     0     0 -303.41748    0  321 -306.70360 -303.41748  1.07%     - 4182s
     0     0 -303.41748    0  321 -306.70360 -303.41748  1.07%     - 4183s
     0     0 -303.41748    0  320 -306.70360 -303.41748  1.07%     - 4186s
     0     2 -303.48291    0  320 -306.70360 -303.48291  1.05%     - 4188s

Cutting planes:
  Gomory: 3
  MIR: 10
  Zero half: 55

Explored 22 nodes (235330 simplex iterations) in 4188.92 seconds
Thread count was 1 (of 80 available processors)

Solution count 5: -306.704 -306.704 -306.704 ... -328.565

Optimal solution found (tolerance 1.00e-04)
Best objective -3.067035996957e+02, best bound -3.067035996957e+02, gap 0.0000%
